p cnf 324 1
324 0
w 1 0.69187
w 2 1 0.86218
w 2 -1 0.722445
w 3 2 0
w 3 -2 1
w 4 3 1
w 4 -3 0
w 5 4 0.402878
w 5 -4 0.866453
w 6 5 1
w 6 -5 0
w 7 6 0
w 7 -6 1
w 8 7 0.0165673
w 8 -7 0.863878
w 9 8 0
w 9 -8 1
w 10 9 1
w 10 -9 0
w 11 10 1
w 11 -10 0
w 12 11 0.510806
w 12 -11 0.350369
w 13 12 1
w 13 -12 0
w 14 13 1
w 14 -13 0
w 15 14 0
w 15 -14 1
w 16 15 0.123436
w 16 -15 0.327974
w 17 16 0
w 17 -16 1
w 18 17 0.636105
w 18 -17 0.805226
w 19 1 0
w 19 -1 1
w 20 19 2 0.462017
w 20 19 -2 0.813766
w 20 -19 2 0.378008
w 20 -19 -2 0.478584
w 21 20 3 0.870675
w 21 20 -3 0.45693
w 21 -20 3 0.810274
w 21 -20 -3 0.251394
w 22 21 4 0.239995
w 22 21 -4 0.78044
w 22 -21 4 0.394426
w 22 -21 -4 0.590364
w 23 22 5 0.103547
w 23 22 -5 0.921209
w 23 -22 5 0.770422
w 23 -22 -5 0.504538
w 24 23 6 1
w 24 23 -6 1
w 24 -23 6 1
w 24 -23 -6 0
w 25 24 7 1
w 25 24 -7 1
w 25 -24 7 1
w 25 -24 -7 0
w 26 25 8 1
w 26 25 -8 0
w 26 -25 8 0
w 26 -25 -8 1
w 27 26 9 0.758952
w 27 26 -9 0.892103
w 27 -26 9 0.971734
w 27 -26 -9 0.569225
w 28 27 10 0
w 28 27 -10 0
w 28 -27 10 0
w 28 -27 -10 1
w 29 28 11 1
w 29 28 -11 1
w 29 -28 11 0
w 29 -28 -11 1
w 30 29 12 0.0973829
w 30 29 -12 0.485839
w 30 -29 12 0.0432026
w 30 -29 -12 0.647954
w 31 30 13 0.159673
w 31 30 -13 0.834629
w 31 -30 13 0.351709
w 31 -30 -13 0.733875
w 32 31 14 1
w 32 31 -14 1
w 32 -31 14 1
w 32 -31 -14 0
w 33 32 15 0
w 33 32 -15 0
w 33 -32 15 0
w 33 -32 -15 1
w 34 33 16 0
w 34 33 -16 1
w 34 -33 16 0
w 34 -33 -16 1
w 35 34 17 0.848814
w 35 34 -17 0.715091
w 35 -34 17 0.0412538
w 35 -34 -17 0.491958
w 36 35 18 0.559265
w 36 35 -18 0.58934
w 36 -35 18 0.0587939
w 36 -35 -18 0.602467
w 37 19 1
w 37 -19 0
w 38 37 20 0.0719227
w 38 37 -20 0.926664
w 38 -37 20 0.496016
w 38 -37 -20 0.174093
w 39 38 21 0.266111
w 39 38 -21 0.357571
w 39 -38 21 0.938349
w 39 -38 -21 0.55101
w 40 39 22 0
w 40 39 -22 0
w 40 -39 22 1
w 40 -39 -22 1
w 41 40 23 0.132532
w 41 40 -23 0.875254
w 41 -40 23 0.281394
w 41 -40 -23 0.852992
w 42 41 24 0.996485
w 42 41 -24 0.894246
w 42 -41 24 0.216025
w 42 -41 -24 0.569441
w 43 42 25 1
w 43 42 -25 1
w 43 -42 25 0
w 43 -42 -25 1
w 44 43 26 0.114582
w 44 43 -26 0.129854
w 44 -43 26 0.314134
w 44 -43 -26 0.288675
w 45 44 27 0
w 45 44 -27 1
w 45 -44 27 0
w 45 -44 -27 1
w 46 45 28 0.837002
w 46 45 -28 0.938897
w 46 -45 28 0.757904
w 46 -45 -28 0.736164
w 47 46 29 0.890436
w 47 46 -29 0.611418
w 47 -46 29 0.13992
w 47 -46 -29 0.743428
w 48 47 30 0
w 48 47 -30 1
w 48 -47 30 0
w 48 -47 -30 1
w 49 48 31 1
w 49 48 -31 0
w 49 -48 31 0
w 49 -48 -31 1
w 50 49 32 0.965282
w 50 49 -32 0.514118
w 50 -49 32 0.667124
w 50 -49 -32 0.279416
w 51 50 33 0.718771
w 51 50 -33 0.859661
w 51 -50 33 0.44904
w 51 -50 -33 0.708767
w 52 51 34 0.395288
w 52 51 -34 0.545769
w 52 -51 34 0.929813
w 52 -51 -34 0.153192
w 53 52 35 1
w 53 52 -35 0
w 53 -52 35 0
w 53 -52 -35 1
w 54 53 36 0.228836
w 54 53 -36 0.0646635
w 54 -53 36 0.424731
w 54 -53 -36 0.780346
w 55 37 0.515916
w 55 -37 0.137222
w 56 55 38 0
w 56 55 -38 0
w 56 -55 38 0
w 56 -55 -38 1
w 57 56 39 0
w 57 56 -39 1
w 57 -56 39 0
w 57 -56 -39 1
w 58 57 40 0.302708
w 58 57 -40 0.736522
w 58 -57 40 0.758354
w 58 -57 -40 0.697996
w 59 58 41 1
w 59 58 -41 0
w 59 -58 41 1
w 59 -58 -41 0
w 60 59 42 0.457574
w 60 59 -42 0.404765
w 60 -59 42 0.681874
w 60 -59 -42 0.68641
w 61 60 43 0
w 61 60 -43 1
w 61 -60 43 0
w 61 -60 -43 0
w 62 61 44 0.344527
w 62 61 -44 0.2856
w 62 -61 44 0.140736
w 62 -61 -44 0.986387
w 63 62 45 0.191612
w 63 62 -45 0.295371
w 63 -62 45 0.821738
w 63 -62 -45 0.0452801
w 64 63 46 0
w 64 63 -46 1
w 64 -63 46 0
w 64 -63 -46 0
w 65 64 47 1
w 65 64 -47 0
w 65 -64 47 1
w 65 -64 -47 0
w 66 65 48 0.79199
w 66 65 -48 0.363735
w 66 -65 48 0.916968
w 66 -65 -48 0.473864
w 67 66 49 1
w 67 66 -49 0
w 67 -66 49 1
w 67 -66 -49 1
w 68 67 50 0
w 68 67 -50 0
w 68 -67 50 1
w 68 -67 -50 1
w 69 68 51 0.402551
w 69 68 -51 0.453227
w 69 -68 51 0.252619
w 69 -68 -51 0.224288
w 70 69 52 0
w 70 69 -52 1
w 70 -69 52 0
w 70 -69 -52 0
w 71 70 53 0.977332
w 71 70 -53 0.196691
w 71 -70 53 0.789654
w 71 -70 -53 0.883494
w 72 71 54 0.581644
w 72 71 -54 0.247229
w 72 -71 54 0.625862
w 72 -71 -54 0.0555083
w 73 55 0
w 73 -55 1
w 74 73 56 0.814276
w 74 73 -56 0.638592
w 74 -73 56 0.838967
w 74 -73 -56 0.935155
w 75 74 57 0.327557
w 75 74 -57 0.196771
w 75 -74 57 0.5667
w 75 -74 -57 0.730107
w 76 75 58 0.819319
w 76 75 -58 0.954395
w 76 -75 58 0.148505
w 76 -75 -58 0.395065
w 77 76 59 0.995001
w 77 76 -59 0.0304587
w 77 -76 59 0.928853
w 77 -76 -59 0.887482
w 78 77 60 1
w 78 77 -60 0
w 78 -77 60 1
w 78 -77 -60 1
w 79 78 61 1
w 79 78 -61 0
w 79 -78 61 1
w 79 -78 -61 0
w 80 79 62 0
w 80 79 -62 1
w 80 -79 62 0
w 80 -79 -62 1
w 81 80 63 0
w 81 80 -63 0
w 81 -80 63 1
w 81 -80 -63 1
w 82 81 64 0.0320885
w 82 81 -64 0.106621
w 82 -81 64 0.801292
w 82 -81 -64 0.180594
w 83 82 65 0.569151
w 83 82 -65 0.175595
w 83 -82 65 0.532145
w 83 -82 -65 0.498003
w 84 83 66 1
w 84 83 -66 1
w 84 -83 66 0
w 84 -83 -66 0
w 85 84 67 0
w 85 84 -67 1
w 85 -84 67 1
w 85 -84 -67 1
w 86 85 68 0
w 86 85 -68 1
w 86 -85 68 1
w 86 -85 -68 0
w 87 86 69 0
w 87 86 -69 1
w 87 -86 69 1
w 87 -86 -69 0
w 88 87 70 0.016466
w 88 87 -70 0.855287
w 88 -87 70 0.616514
w 88 -87 -70 0.817758
w 89 88 71 1
w 89 88 -71 0
w 89 -88 71 0
w 89 -88 -71 1
w 90 89 72 0.274554
w 90 89 -72 0.19028
w 90 -89 72 0.508459
w 90 -89 -72 0.0147668
w 91 73 0.966443
w 91 -73 0.0137603
w 92 91 74 0
w 92 91 -74 1
w 92 -91 74 1
w 92 -91 -74 1
w 93 92 75 1
w 93 92 -75 1
w 93 -92 75 0
w 93 -92 -75 0
w 94 93 76 0.716956
w 94 93 -76 0.510043
w 94 -93 76 0.829406
w 94 -93 -76 0.572243
w 95 94 77 0
w 95 94 -77 0
w 95 -94 77 1
w 95 -94 -77 0
w 96 95 78 0.895102
w 96 95 -78 0.918984
w 96 -95 78 0.0941551
w 96 -95 -78 0.0853829
w 97 96 79 0
w 97 96 -79 1
w 97 -96 79 1
w 97 -96 -79 0
w 98 97 80 0.278611
w 98 97 -80 0.449725
w 98 -97 80 0.0949799
w 98 -97 -80 0.554179
w 99 98 81 1
w 99 98 -81 1
w 99 -98 81 1
w 99 -98 -81 0
w 100 99 82 0
w 100 99 -82 0
w 100 -99 82 0
w 100 -99 -82 1
w 101 100 83 0.968487
w 101 100 -83 0.973196
w 101 -100 83 0.33871
w 101 -100 -83 0.213244
w 102 101 84 1
w 102 101 -84 0
w 102 -101 84 1
w 102 -101 -84 1
w 103 102 85 1
w 103 102 -85 0
w 103 -102 85 0
w 103 -102 -85 1
w 104 103 86 0.0261928
w 104 103 -86 0.933795
w 104 -103 86 0.893713
w 104 -103 -86 0.580372
w 105 104 87 0.441342
w 105 104 -87 0.912108
w 105 -104 87 0.657796
w 105 -104 -87 0.882728
w 106 105 88 1
w 106 105 -88 0
w 106 -105 88 1
w 106 -105 -88 0
w 107 106 89 0.0544097
w 107 106 -89 0.453651
w 107 -106 89 0.110365
w 107 -106 -89 0.267654
w 108 107 90 0
w 108 107 -90 0
w 108 -107 90 1
w 108 -107 -90 1
w 109 91 0.740868
w 109 -91 0.882531
w 110 109 92 0
w 110 109 -92 0
w 110 -109 92 1
w 110 -109 -92 1
w 111 110 93 1
w 111 110 -93 0
w 111 -110 93 1
w 111 -110 -93 1
w 112 111 94 0
w 112 111 -94 1
w 112 -111 94 0
w 112 -111 -94 1
w 113 112 95 0.337039
w 113 112 -95 0.567181
w 113 -112 95 0.299584
w 113 -112 -95 0.391449
w 114 113 96 1
w 114 113 -96 0
w 114 -113 96 1
w 114 -113 -96 0
w 115 114 97 0
w 115 114 -97 1
w 115 -114 97 0
w 115 -114 -97 0
w 116 115 98 0
w 116 115 -98 0
w 116 -115 98 1
w 116 -115 -98 1
w 117 116 99 0.749299
w 117 116 -99 0.507045
w 117 -116 99 0.707897
w 117 -116 -99 0.0238071
w 118 117 100 1
w 118 117 -100 1
w 118 -117 100 0
w 118 -117 -100 0
w 119 118 101 0
w 119 118 -101 1
w 119 -118 101 1
w 119 -118 -101 0
w 120 119 102 0.630849
w 120 119 -102 0.835501
w 120 -119 102 0.353725
w 120 -119 -102 0.112599
w 121 120 103 0.388828
w 121 120 -103 0.981522
w 121 -120 103 0.713894
w 121 -120 -103 0.993662
w 122 121 104 0.796193
w 122 121 -104 0.0688395
w 122 -121 104 0.689554
w 122 -121 -104 0.245095
w 123 122 105 0
w 123 122 -105 1
w 123 -122 105 1
w 123 -122 -105 0
w 124 123 106 0
w 124 123 -106 0
w 124 -123 106 1
w 124 -123 -106 0
w 125 124 107 0.0171497
w 125 124 -107 0.755322
w 125 -124 107 0.99466
w 125 -124 -107 0.627167
w 126 125 108 0
w 126 125 -108 1
w 126 -125 108 0
w 126 -125 -108 1
w 127 109 0
w 127 -109 1
w 128 127 110 1
w 128 127 -110 0
w 128 -127 110 1
w 128 -127 -110 1
w 129 128 111 0
w 129 128 -111 0
w 129 -128 111 1
w 129 -128 -111 1
w 130 129 112 0.280076
w 130 129 -112 0.827571
w 130 -129 112 0.945777
w 130 -129 -112 0.298277
w 131 130 113 0.671129
w 131 130 -113 0.27259
w 131 -130 113 0.488243
w 131 -130 -113 0.362616
w 132 131 114 0
w 132 131 -114 0
w 132 -131 114 0
w 132 -131 -114 1
w 133 132 115 0
w 133 132 -115 1
w 133 -132 115 1
w 133 -132 -115 1
w 134 133 116 0.521402
w 134 133 -116 0.897677
w 134 -133 116 0.215707
w 134 -133 -116 0.9469
w 135 134 117 0.256294
w 135 134 -117 0.441237
w 135 -134 117 0.474135
w 135 -134 -117 0.541976
w 136 135 118 1
w 136 135 -118 1
w 136 -135 118 0
w 136 -135 -118 0
w 137 136 119 0
w 137 136 -119 1
w 137 -136 119 0
w 137 -136 -119 1
w 138 137 120 0
w 138 137 -120 1
w 138 -137 120 0
w 138 -137 -120 0
w 139 138 121 1
w 139 138 -121 0
w 139 -138 121 0
w 139 -138 -121 0
w 140 139 122 0
w 140 139 -122 1
w 140 -139 122 1
w 140 -139 -122 0
w 141 140 123 1
w 141 140 -123 0
w 141 -140 123 1
w 141 -140 -123 0
w 142 141 124 0.140708
w 142 141 -124 0.942547
w 142 -141 124 0.43953
w 142 -141 -124 0.316947
w 143 142 125 1
w 143 142 -125 1
w 143 -142 125 0
w 143 -142 -125 1
w 144 143 126 0.713485
w 144 143 -126 0.635438
w 144 -143 126 0.642379
w 144 -143 -126 0.45986
w 145 127 0
w 145 -127 1
w 146 145 128 1
w 146 145 -128 0
w 146 -145 128 0
w 146 -145 -128 0
w 147 146 129 0.547224
w 147 146 -129 0.888645
w 147 -146 129 0.890002
w 147 -146 -129 0.606058
w 148 147 130 0.682041
w 148 147 -130 0.139027
w 148 -147 130 0.581624
w 148 -147 -130 0.822749
w 149 148 131 1
w 149 148 -131 1
w 149 -148 131 0
w 149 -148 -131 0
w 150 149 132 0
w 150 149 -132 1
w 150 -149 132 1
w 150 -149 -132 0
w 151 150 133 1
w 151 150 -133 1
w 151 -150 133 0
w 151 -150 -133 0
w 152 151 134 0
w 152 151 -134 0
w 152 -151 134 0
w 152 -151 -134 1
w 153 152 135 0.290469
w 153 152 -135 0.267368
w 153 -152 135 0.694497
w 153 -152 -135 0.896527
w 154 153 136 1
w 154 153 -136 0
w 154 -153 136 1
w 154 -153 -136 1
w 155 154 137 1
w 155 154 -137 1
w 155 -154 137 0
w 155 -154 -137 1
w 156 155 138 0.200465
w 156 155 -138 0.949098
w 156 -155 138 0.197966
w 156 -155 -138 0.61781
w 157 156 139 1
w 157 156 -139 0
w 157 -156 139 1
w 157 -156 -139 1
w 158 157 140 0.936288
w 158 157 -140 0.360187
w 158 -157 140 0.890313
w 158 -157 -140 0.679532
w 159 158 141 0.694809
w 159 158 -141 0.970001
w 159 -158 141 0.00627738
w 159 -158 -141 0.389306
w 160 159 142 0.237791
w 160 159 -142 0.765845
w 160 -159 142 0.902083
w 160 -159 -142 0.0509292
w 161 160 143 0.0192122
w 161 160 -143 0.885221
w 161 -160 143 0.304114
w 161 -160 -143 0.515817
w 162 161 144 1
w 162 161 -144 0
w 162 -161 144 1
w 162 -161 -144 1
w 163 145 0
w 163 -145 1
w 164 163 146 0.829106
w 164 163 -146 0.890514
w 164 -163 146 0.591293
w 164 -163 -146 0.454122
w 165 164 147 0.95148
w 165 164 -147 0.344435
w 165 -164 147 0.506334
w 165 -164 -147 0.690389
w 166 165 148 1
w 166 165 -148 0
w 166 -165 148 1
w 166 -165 -148 1
w 167 166 149 1
w 167 166 -149 0
w 167 -166 149 0
w 167 -166 -149 1
w 168 167 150 0.46364
w 168 167 -150 0.779976
w 168 -167 150 0.171134
w 168 -167 -150 0.598507
w 169 168 151 0
w 169 168 -151 0
w 169 -168 151 1
w 169 -168 -151 0
w 170 169 152 0
w 170 169 -152 0
w 170 -169 152 1
w 170 -169 -152 0
w 171 170 153 0.0145007
w 171 170 -153 0.458012
w 171 -170 153 0.0123585
w 171 -170 -153 0.70489
w 172 171 154 0
w 172 171 -154 0
w 172 -171 154 0
w 172 -171 -154 1
w 173 172 155 1
w 173 172 -155 1
w 173 -172 155 1
w 173 -172 -155 0
w 174 173 156 1
w 174 173 -156 1
w 174 -173 156 1
w 174 -173 -156 0
w 175 174 157 0.783902
w 175 174 -157 0.273212
w 175 -174 157 0.447246
w 175 -174 -157 0.572611
w 176 175 158 0.106701
w 176 175 -158 0.251834
w 176 -175 158 0.807961
w 176 -175 -158 0.220278
w 177 176 159 0.822462
w 177 176 -159 0.678291
w 177 -176 159 0.770217
w 177 -176 -159 0.527352
w 178 177 160 0
w 178 177 -160 0
w 178 -177 160 0
w 178 -177 -160 1
w 179 178 161 1
w 179 178 -161 0
w 179 -178 161 1
w 179 -178 -161 0
w 180 179 162 0.244649
w 180 179 -162 0.628278
w 180 -179 162 0.141482
w 180 -179 -162 0.586523
w 181 163 0
w 181 -163 1
w 182 181 164 0.692422
w 182 181 -164 0.497994
w 182 -181 164 0.604675
w 182 -181 -164 0.799123
w 183 182 165 0.412636
w 183 182 -165 0.019401
w 183 -182 165 0.507686
w 183 -182 -165 0.235098
w 184 183 166 0.277903
w 184 183 -166 0.76245
w 184 -183 166 0.873238
w 184 -183 -166 0.536813
w 185 184 167 0.974591
w 185 184 -167 0.627281
w 185 -184 167 0.956283
w 185 -184 -167 0.196145
w 186 185 168 0.54261
w 186 185 -168 0.697426
w 186 -185 168 0.301891
w 186 -185 -168 0.320947
w 187 186 169 0.930169
w 187 186 -169 0.462429
w 187 -186 169 0.528598
w 187 -186 -169 0.175345
w 188 187 170 1
w 188 187 -170 1
w 188 -187 170 0
w 188 -187 -170 1
w 189 188 171 0.635634
w 189 188 -171 0.405644
w 189 -188 171 0.68629
w 189 -188 -171 0.14332
w 190 189 172 0.383982
w 190 189 -172 0.421222
w 190 -189 172 0.403192
w 190 -189 -172 0.25722
w 191 190 173 0.0945513
w 191 190 -173 0.231811
w 191 -190 173 0.585316
w 191 -190 -173 0.0508346
w 192 191 174 1
w 192 191 -174 1
w 192 -191 174 1
w 192 -191 -174 0
w 193 192 175 0
w 193 192 -175 0
w 193 -192 175 1
w 193 -192 -175 0
w 194 193 176 0.984388
w 194 193 -176 0.654741
w 194 -193 176 0.650439
w 194 -193 -176 0.977396
w 195 194 177 0
w 195 194 -177 1
w 195 -194 177 1
w 195 -194 -177 0
w 196 195 178 0
w 196 195 -178 0
w 196 -195 178 1
w 196 -195 -178 1
w 197 196 179 0.521524
w 197 196 -179 0.880934
w 197 -196 179 0.393967
w 197 -196 -179 0.572359
w 198 197 180 0
w 198 197 -180 1
w 198 -197 180 1
w 198 -197 -180 0
w 199 181 1
w 199 -181 0
w 200 199 182 0
w 200 199 -182 1
w 200 -199 182 0
w 200 -199 -182 1
w 201 200 183 1
w 201 200 -183 0
w 201 -200 183 0
w 201 -200 -183 0
w 202 201 184 1
w 202 201 -184 0
w 202 -201 184 0
w 202 -201 -184 0
w 203 202 185 0
w 203 202 -185 1
w 203 -202 185 0
w 203 -202 -185 0
w 204 203 186 0
w 204 203 -186 1
w 204 -203 186 1
w 204 -203 -186 0
w 205 204 187 0
w 205 204 -187 0
w 205 -204 187 1
w 205 -204 -187 1
w 206 205 188 0
w 206 205 -188 1
w 206 -205 188 0
w 206 -205 -188 0
w 207 206 189 0.184718
w 207 206 -189 0.297898
w 207 -206 189 0.783998
w 207 -206 -189 0.244291
w 208 207 190 0
w 208 207 -190 0
w 208 -207 190 1
w 208 -207 -190 0
w 209 208 191 1
w 209 208 -191 0
w 209 -208 191 1
w 209 -208 -191 1
w 210 209 192 0.855478
w 210 209 -192 0.448799
w 210 -209 192 0.903095
w 210 -209 -192 0.269799
w 211 210 193 0.406115
w 211 210 -193 0.139118
w 211 -210 193 0.835099
w 211 -210 -193 0.410868
w 212 211 194 1
w 212 211 -194 0
w 212 -211 194 1
w 212 -211 -194 0
w 213 212 195 0.162517
w 213 212 -195 0.221271
w 213 -212 195 0.942419
w 213 -212 -195 0.290391
w 214 213 196 1
w 214 213 -196 0
w 214 -213 196 1
w 214 -213 -196 1
w 215 214 197 0
w 215 214 -197 0
w 215 -214 197 0
w 215 -214 -197 1
w 216 215 198 0
w 216 215 -198 1
w 216 -215 198 1
w 216 -215 -198 0
w 217 199 0
w 217 -199 1
w 218 217 200 0.140104
w 218 217 -200 0.176574
w 218 -217 200 0.0806509
w 218 -217 -200 0.215171
w 219 218 201 0.594061
w 219 218 -201 0.0797896
w 219 -218 201 0.139209
w 219 -218 -201 0.292189
w 220 219 202 0
w 220 219 -202 1
w 220 -219 202 0
w 220 -219 -202 1
w 221 220 203 0.788859
w 221 220 -203 0.217046
w 221 -220 203 0.646545
w 221 -220 -203 0.240592
w 222 221 204 0.47582
w 222 221 -204 0.766816
w 222 -221 204 0.75377
w 222 -221 -204 0.766646
w 223 222 205 0
w 223 222 -205 1
w 223 -222 205 0
w 223 -222 -205 1
w 224 223 206 0.0608389
w 224 223 -206 0.626047
w 224 -223 206 0.0243205
w 224 -223 -206 0.14149
w 225 224 207 0.726257
w 225 224 -207 0.735551
w 225 -224 207 0.921008
w 225 -224 -207 0.865465
w 226 225 208 1
w 226 225 -208 1
w 226 -225 208 0
w 226 -225 -208 1
w 227 226 209 0.126278
w 227 226 -209 0.48487
w 227 -226 209 0.966898
w 227 -226 -209 0.772823
w 228 227 210 0.844959
w 228 227 -210 0.248644
w 228 -227 210 0.492278
w 228 -227 -210 0.598728
w 229 228 211 0
w 229 228 -211 0
w 229 -228 211 0
w 229 -228 -211 1
w 230 229 212 0.369306
w 230 229 -212 0.0715629
w 230 -229 212 0.195675
w 230 -229 -212 0.393626
w 231 230 213 0
w 231 230 -213 1
w 231 -230 213 1
w 231 -230 -213 1
w 232 231 214 0.976344
w 232 231 -214 0.121215
w 232 -231 214 0.211293
w 232 -231 -214 0.238693
w 233 232 215 0.961145
w 233 232 -215 0.364971
w 233 -232 215 0.302096
w 233 -232 -215 0.928043
w 234 233 216 0
w 234 233 -216 1
w 234 -233 216 1
w 234 -233 -216 0
w 235 217 0
w 235 -217 1
w 236 235 218 0
w 236 235 -218 0
w 236 -235 218 1
w 236 -235 -218 0
w 237 236 219 1
w 237 236 -219 1
w 237 -236 219 0
w 237 -236 -219 0
w 238 237 220 1
w 238 237 -220 1
w 238 -237 220 0
w 238 -237 -220 1
w 239 238 221 0
w 239 238 -221 1
w 239 -238 221 1
w 239 -238 -221 1
w 240 239 222 0.963454
w 240 239 -222 0.456049
w 240 -239 222 0.891931
w 240 -239 -222 0.101248
w 241 240 223 0
w 241 240 -223 1
w 241 -240 223 0
w 241 -240 -223 0
w 242 241 224 0.142947
w 242 241 -224 0.492079
w 242 -241 224 0.8127
w 242 -241 -224 0.293174
w 243 242 225 0.105292
w 243 242 -225 0.514965
w 243 -242 225 0.737842
w 243 -242 -225 0.791511
w 244 243 226 0.995454
w 244 243 -226 0.597612
w 244 -243 226 0.333255
w 244 -243 -226 0.210967
w 245 244 227 1
w 245 244 -227 0
w 245 -244 227 1
w 245 -244 -227 0
w 246 245 228 0.355692
w 246 245 -228 0.254984
w 246 -245 228 0.157698
w 246 -245 -228 0.247622
w 247 246 229 1
w 247 246 -229 0
w 247 -246 229 1
w 247 -246 -229 1
w 248 247 230 0.787695
w 248 247 -230 0.441296
w 248 -247 230 0.546031
w 248 -247 -230 0.0808695
w 249 248 231 0.651323
w 249 248 -231 0.595834
w 249 -248 231 0.696261
w 249 -248 -231 0.442834
w 250 249 232 0.691715
w 250 249 -232 0.0404467
w 250 -249 232 0.878898
w 250 -249 -232 0.902682
w 251 250 233 0
w 251 250 -233 1
w 251 -250 233 0
w 251 -250 -233 0
w 252 251 234 0
w 252 251 -234 1
w 252 -251 234 0
w 252 -251 -234 1
w 253 235 0
w 253 -235 1
w 254 253 236 0
w 254 253 -236 1
w 254 -253 236 0
w 254 -253 -236 0
w 255 254 237 1
w 255 254 -237 1
w 255 -254 237 1
w 255 -254 -237 0
w 256 255 238 0
w 256 255 -238 0
w 256 -255 238 1
w 256 -255 -238 0
w 257 256 239 0.484718
w 257 256 -239 0.976772
w 257 -256 239 0.162083
w 257 -256 -239 0.0566615
w 258 257 240 1
w 258 257 -240 1
w 258 -257 240 0
w 258 -257 -240 1
w 259 258 241 0
w 259 258 -241 0
w 259 -258 241 1
w 259 -258 -241 0
w 260 259 242 0.831887
w 260 259 -242 0.435709
w 260 -259 242 0.208609
w 260 -259 -242 0.883826
w 261 260 243 0.936305
w 261 260 -243 0.481796
w 261 -260 243 0.283525
w 261 -260 -243 0.62242
w 262 261 244 0.343702
w 262 261 -244 0.0047954
w 262 -261 244 0.423217
w 262 -261 -244 0.949522
w 263 262 245 1
w 263 262 -245 1
w 263 -262 245 1
w 263 -262 -245 0
w 264 263 246 0
w 264 263 -246 0
w 264 -263 246 1
w 264 -263 -246 0
w 265 264 247 0
w 265 264 -247 0
w 265 -264 247 0
w 265 -264 -247 1
w 266 265 248 0.968908
w 266 265 -248 0.794795
w 266 -265 248 0.226525
w 266 -265 -248 0.177517
w 267 266 249 0.0457067
w 267 266 -249 0.113822
w 267 -266 249 0.160417
w 267 -266 -249 0.329232
w 268 267 250 0.891506
w 268 267 -250 0.672934
w 268 -267 250 0.741037
w 268 -267 -250 0.314724
w 269 268 251 0.819923
w 269 268 -251 0.470516
w 269 -268 251 0.0566965
w 269 -268 -251 0.875581
w 270 269 252 0.547598
w 270 269 -252 0.358389
w 270 -269 252 0.0896615
w 270 -269 -252 0.958634
w 271 253 1
w 271 -253 0
w 272 271 254 0
w 272 271 -254 1
w 272 -271 254 1
w 272 -271 -254 1
w 273 272 255 0.165963
w 273 272 -255 0.388599
w 273 -272 255 0.744458
w 273 -272 -255 0.844584
w 274 273 256 1
w 274 273 -256 0
w 274 -273 256 0
w 274 -273 -256 1
w 275 274 257 0.436471
w 275 274 -257 0.33556
w 275 -274 257 0.211232
w 275 -274 -257 0.0589277
w 276 275 258 0
w 276 275 -258 1
w 276 -275 258 1
w 276 -275 -258 0
w 277 276 259 0.389453
w 277 276 -259 0.559799
w 277 -276 259 0.621856
w 277 -276 -259 0.809827
w 278 277 260 0
w 278 277 -260 0
w 278 -277 260 1
w 278 -277 -260 1
w 279 278 261 0
w 279 278 -261 1
w 279 -278 261 0
w 279 -278 -261 0
w 280 279 262 1
w 280 279 -262 1
w 280 -279 262 1
w 280 -279 -262 0
w 281 280 263 1
w 281 280 -263 1
w 281 -280 263 0
w 281 -280 -263 0
w 282 281 264 0.206322
w 282 281 -264 0.540626
w 282 -281 264 0.995472
w 282 -281 -264 0.67646
w 283 282 265 1
w 283 282 -265 0
w 283 -282 265 1
w 283 -282 -265 1
w 284 283 266 0
w 284 283 -266 1
w 284 -283 266 1
w 284 -283 -266 1
w 285 284 267 1
w 285 284 -267 0
w 285 -284 267 0
w 285 -284 -267 0
w 286 285 268 0.232069
w 286 285 -268 0.653029
w 286 -285 268 0.546424
w 286 -285 -268 0.705435
w 287 286 269 0.912498
w 287 286 -269 0.514361
w 287 -286 269 0.490948
w 287 -286 -269 0.337499
w 288 287 270 0
w 288 287 -270 1
w 288 -287 270 1
w 288 -287 -270 1
w 289 271 1
w 289 -271 0
w 290 289 272 0.907677
w 290 289 -272 0.0539189
w 290 -289 272 0.957379
w 290 -289 -272 0.7635
w 291 290 273 1
w 291 290 -273 1
w 291 -290 273 1
w 291 -290 -273 0
w 292 291 274 0.59951
w 292 291 -274 0.699821
w 292 -291 274 0.0811607
w 292 -291 -274 0.216332
w 293 292 275 0.73419
w 293 292 -275 0.762756
w 293 -292 275 0.637325
w 293 -292 -275 0.700563
w 294 293 276 0.151686
w 294 293 -276 0.191511
w 294 -293 276 0.0127533
w 294 -293 -276 0.630456
w 295 294 277 0.890878
w 295 294 -277 0.104697
w 295 -294 277 0.26251
w 295 -294 -277 0.972851
w 296 295 278 0.872499
w 296 295 -278 0.880529
w 296 -295 278 0.0177834
w 296 -295 -278 0.829878
w 297 296 279 0.44754
w 297 296 -279 0.843813
w 297 -296 279 0.664636
w 297 -296 -279 0.596294
w 298 297 280 0
w 298 297 -280 1
w 298 -297 280 1
w 298 -297 -280 0
w 299 298 281 1
w 299 298 -281 0
w 299 -298 281 1
w 299 -298 -281 1
w 300 299 282 0.611132
w 300 299 -282 0.217028
w 300 -299 282 0.862899
w 300 -299 -282 0.241588
w 301 300 283 0
w 301 300 -283 0
w 301 -300 283 0
w 301 -300 -283 1
w 302 301 284 1
w 302 301 -284 1
w 302 -301 284 0
w 302 -301 -284 0
w 303 302 285 0
w 303 302 -285 0
w 303 -302 285 1
w 303 -302 -285 0
w 304 303 286 1
w 304 303 -286 1
w 304 -303 286 0
w 304 -303 -286 0
w 305 304 287 0.817268
w 305 304 -287 0.341145
w 305 -304 287 0.154598
w 305 -304 -287 0.276713
w 306 305 288 0
w 306 305 -288 0
w 306 -305 288 1
w 306 -305 -288 0
w 307 289 0.621421
w 307 -289 0.475717
w 308 307 290 0
w 308 307 -290 0
w 308 -307 290 1
w 308 -307 -290 1
w 309 308 291 0
w 309 308 -291 0
w 309 -308 291 1
w 309 -308 -291 0
w 310 309 292 1
w 310 309 -292 1
w 310 -309 292 0
w 310 -309 -292 1
w 311 310 293 0
w 311 310 -293 1
w 311 -310 293 0
w 311 -310 -293 0
w 312 311 294 0.477885
w 312 311 -294 0.271638
w 312 -311 294 0.967657
w 312 -311 -294 0.36573
w 313 312 295 0.8353
w 313 312 -295 0.495162
w 313 -312 295 0.544827
w 313 -312 -295 0.456721
w 314 313 296 0.602644
w 314 313 -296 0.804771
w 314 -313 296 0.756746
w 314 -313 -296 0.90128
w 315 314 297 0.870546
w 315 314 -297 0.27061
w 315 -314 297 0.966371
w 315 -314 -297 0.759819
w 316 315 298 0.0885855
w 316 315 -298 0.0208574
w 316 -315 298 0.943206
w 316 -315 -298 0.636226
w 317 316 299 0.32711
w 317 316 -299 0.200057
w 317 -316 299 0.657781
w 317 -316 -299 0.528282
w 318 317 300 0
w 318 317 -300 0
w 318 -317 300 1
w 318 -317 -300 0
w 319 318 301 0
w 319 318 -301 1
w 319 -318 301 0
w 319 -318 -301 0
w 320 319 302 0.379471
w 320 319 -302 0.685143
w 320 -319 302 0.594684
w 320 -319 -302 0.28075
w 321 320 303 0
w 321 320 -303 1
w 321 -320 303 0
w 321 -320 -303 1
w 322 321 304 0
w 322 321 -304 1
w 322 -321 304 1
w 322 -321 -304 1
w 323 322 305 1
w 323 322 -305 0
w 323 -322 305 0
w 323 -322 -305 1
w 324 323 306 0
w 324 323 -306 1
w 324 -323 306 0
w 324 -323 -306 0